1287.27
0 74 62 1 25 55 66 38 58 72 9 0
0 39 31 11 59 37 15 27 35 46 34 75 0
0 43 42 41 56 23 49 44 16 63 73 28 47 30 0
0 36 70 14 65 10 32 18 24 22 33 51 0
0 3 50 40 12 54 57 60 21 68 0
0 64 61 69 48 45 2 6 17 67 0
0 71 20 5 29 13 52 8 19 7 53 26 4 0
